100 8
570 668
219 926
477 442
928 954
560 744
469 419
667 288
294 64
234 255
709 274
826 830
318 682
229 905
892 787
174 517
89 736
878 835
626 994
441 725
617 898
470 955
743 276
845 909
579 839
59 640
592 607
541 475
332 144
750 851
647 267
602 568
152 113
911 585
181 664
719 144
623 670
136 700
128 653
581 547
620 918
676 519
506 592
913 738
227 102
226 546
189 157
787 679
649 668
862 378
753 916
584 669
617 316
415 566
94 516
551 825
656 234
503 573
940 322
907 928
522 944
508 422
350 121
565 416
251 760
648 515
250 244
877 352
107 624
618 860
808 363
899 922
266 741
97 868
226 746
575 813
542 568
890 901
447 635
158 811
594 896
357 541
239 197
598 878
896 917
901 900
344 661
174 635
241 839
560 482
230 76
933 876
598 761
111 792
429 705
613 846
682 219
460 813
615 650
515 944
923 560
